NAME : DD70.2214175.tour
COMMENT : Cost = 0_2214175
COMMENT : Found by LKH [Keld Helsgaun] Sun Apr 23 15:14:36 2017
TYPE : TOUR
DIMENSION : 144
TOUR_SECTION
1
17
19
87
18
89
88
34
104
64
134
3
73
12
82
67
137
32
102
37
15
107
85
63
133
56
8
126
69
78
139
45
11
81
115
59
129
41
28
111
98
144
7
77
29
40
99
60
130
110
57
127
35
105
31
33
101
52
103
122
48
16
118
86
55
125
2
72
54
24
94
124
36
106
30
20
90
100
23
93
143
38
108
50
120
14
84
42
112
9
49
79
6
76
66
136
119
21
91
10
80
47
117
70
140
46
116
44
114
43
113
142
62
27
132
97
65
135
22
92
71
141
5
75
13
83
58
4
74
25
95
128
61
131
51
121
26
68
138
96
39
109
53
123
-1
EOF
